c *********************************
c * Circuit generated by BenCGen
c *
c * CarrySkipAdder_86_86_86_InOut_G4T
c *
c * Ports with 1 gate(s): 24
c * Ports with 2 gate(s): 476
c * Ports with 4 gate(s): 21
c * Total gates: 521
c *********************************
p cnf 693 1753
1 261 0
-1 -261 0
1 -260 0
261 -260 0
-1 -261 260 0
1 87 -264 0
-1 87 264 0
1 -87 264 0
-1 -87 -264 0
264 260 -173 0
-264 260 173 0
264 -260 173 0
-264 -260 -173 0
260 -265 0
264 -265 0
-260 -264 265 0
87 -266 0
1 -266 0
-87 -1 266 0
-265 263 0
-266 263 0
265 266 -263 0
2 88 -268 0
-2 88 268 0
2 -88 268 0
-2 -88 -268 0
268 263 -174 0
-268 263 174 0
268 -263 174 0
-268 -263 -174 0
263 -269 0
268 -269 0
-263 -268 269 0
88 -270 0
2 -270 0
-88 -2 270 0
-269 267 0
-270 267 0
269 270 -267 0
3 89 -272 0
-3 89 272 0
3 -89 272 0
-3 -89 -272 0
272 267 -175 0
-272 267 175 0
272 -267 175 0
-272 -267 -175 0
267 -273 0
272 -273 0
-267 -272 273 0
89 -274 0
3 -274 0
-89 -3 274 0
-273 271 0
-274 271 0
273 274 -271 0
4 90 -275 0
-4 90 275 0
4 -90 275 0
-4 -90 -275 0
275 271 -176 0
-275 271 176 0
275 -271 176 0
-275 -271 -176 0
271 -276 0
275 -276 0
-271 -275 276 0
90 -277 0
4 -277 0
-90 -4 277 0
-276 262 0
-277 262 0
276 277 -262 0
264 -278 0
268 -278 0
272 -278 0
275 -278 0
-264 -268 -272 -275 278 0
277 -279 0
-277 279 0
260 -280 0
278 -280 0
-260 -278 280 0
-280 281 0
-262 281 0
280 262 -281 0
5 91 -284 0
-5 91 284 0
5 -91 284 0
-5 -91 -284 0
284 281 -177 0
-284 281 177 0
284 -281 177 0
-284 -281 -177 0
281 -285 0
284 -285 0
-281 -284 285 0
91 -286 0
5 -286 0
-91 -5 286 0
-285 283 0
-286 283 0
285 286 -283 0
6 92 -288 0
-6 92 288 0
6 -92 288 0
-6 -92 -288 0
288 283 -178 0
-288 283 178 0
288 -283 178 0
-288 -283 -178 0
283 -289 0
288 -289 0
-283 -288 289 0
92 -290 0
6 -290 0
-92 -6 290 0
-289 287 0
-290 287 0
289 290 -287 0
7 93 -292 0
-7 93 292 0
7 -93 292 0
-7 -93 -292 0
292 287 -179 0
-292 287 179 0
292 -287 179 0
-292 -287 -179 0
287 -293 0
292 -293 0
-287 -292 293 0
93 -294 0
7 -294 0
-93 -7 294 0
-293 291 0
-294 291 0
293 294 -291 0
8 94 -295 0
-8 94 295 0
8 -94 295 0
-8 -94 -295 0
295 291 -180 0
-295 291 180 0
295 -291 180 0
-295 -291 -180 0
291 -296 0
295 -296 0
-291 -295 296 0
94 -297 0
8 -297 0
-94 -8 297 0
-296 282 0
-297 282 0
296 297 -282 0
284 -298 0
288 -298 0
292 -298 0
295 -298 0
-284 -288 -292 -295 298 0
297 -299 0
-297 299 0
281 -300 0
298 -300 0
-281 -298 300 0
-300 301 0
-282 301 0
300 282 -301 0
9 95 -304 0
-9 95 304 0
9 -95 304 0
-9 -95 -304 0
304 301 -181 0
-304 301 181 0
304 -301 181 0
-304 -301 -181 0
301 -305 0
304 -305 0
-301 -304 305 0
95 -306 0
9 -306 0
-95 -9 306 0
-305 303 0
-306 303 0
305 306 -303 0
10 96 -308 0
-10 96 308 0
10 -96 308 0
-10 -96 -308 0
308 303 -182 0
-308 303 182 0
308 -303 182 0
-308 -303 -182 0
303 -309 0
308 -309 0
-303 -308 309 0
96 -310 0
10 -310 0
-96 -10 310 0
-309 307 0
-310 307 0
309 310 -307 0
11 97 -312 0
-11 97 312 0
11 -97 312 0
-11 -97 -312 0
312 307 -183 0
-312 307 183 0
312 -307 183 0
-312 -307 -183 0
307 -313 0
312 -313 0
-307 -312 313 0
97 -314 0
11 -314 0
-97 -11 314 0
-313 311 0
-314 311 0
313 314 -311 0
12 98 -315 0
-12 98 315 0
12 -98 315 0
-12 -98 -315 0
315 311 -184 0
-315 311 184 0
315 -311 184 0
-315 -311 -184 0
311 -316 0
315 -316 0
-311 -315 316 0
98 -317 0
12 -317 0
-98 -12 317 0
-316 302 0
-317 302 0
316 317 -302 0
304 -318 0
308 -318 0
312 -318 0
315 -318 0
-304 -308 -312 -315 318 0
317 -319 0
-317 319 0
301 -320 0
318 -320 0
-301 -318 320 0
-320 321 0
-302 321 0
320 302 -321 0
13 99 -324 0
-13 99 324 0
13 -99 324 0
-13 -99 -324 0
324 321 -185 0
-324 321 185 0
324 -321 185 0
-324 -321 -185 0
321 -325 0
324 -325 0
-321 -324 325 0
99 -326 0
13 -326 0
-99 -13 326 0
-325 323 0
-326 323 0
325 326 -323 0
14 100 -328 0
-14 100 328 0
14 -100 328 0
-14 -100 -328 0
328 323 -186 0
-328 323 186 0
328 -323 186 0
-328 -323 -186 0
323 -329 0
328 -329 0
-323 -328 329 0
100 -330 0
14 -330 0
-100 -14 330 0
-329 327 0
-330 327 0
329 330 -327 0
15 101 -332 0
-15 101 332 0
15 -101 332 0
-15 -101 -332 0
332 327 -187 0
-332 327 187 0
332 -327 187 0
-332 -327 -187 0
327 -333 0
332 -333 0
-327 -332 333 0
101 -334 0
15 -334 0
-101 -15 334 0
-333 331 0
-334 331 0
333 334 -331 0
16 102 -335 0
-16 102 335 0
16 -102 335 0
-16 -102 -335 0
335 331 -188 0
-335 331 188 0
335 -331 188 0
-335 -331 -188 0
331 -336 0
335 -336 0
-331 -335 336 0
102 -337 0
16 -337 0
-102 -16 337 0
-336 322 0
-337 322 0
336 337 -322 0
324 -338 0
328 -338 0
332 -338 0
335 -338 0
-324 -328 -332 -335 338 0
337 -339 0
-337 339 0
321 -340 0
338 -340 0
-321 -338 340 0
-340 341 0
-322 341 0
340 322 -341 0
17 103 -344 0
-17 103 344 0
17 -103 344 0
-17 -103 -344 0
344 341 -189 0
-344 341 189 0
344 -341 189 0
-344 -341 -189 0
341 -345 0
344 -345 0
-341 -344 345 0
103 -346 0
17 -346 0
-103 -17 346 0
-345 343 0
-346 343 0
345 346 -343 0
18 104 -348 0
-18 104 348 0
18 -104 348 0
-18 -104 -348 0
348 343 -190 0
-348 343 190 0
348 -343 190 0
-348 -343 -190 0
343 -349 0
348 -349 0
-343 -348 349 0
104 -350 0
18 -350 0
-104 -18 350 0
-349 347 0
-350 347 0
349 350 -347 0
19 105 -352 0
-19 105 352 0
19 -105 352 0
-19 -105 -352 0
352 347 -191 0
-352 347 191 0
352 -347 191 0
-352 -347 -191 0
347 -353 0
352 -353 0
-347 -352 353 0
105 -354 0
19 -354 0
-105 -19 354 0
-353 351 0
-354 351 0
353 354 -351 0
20 106 -355 0
-20 106 355 0
20 -106 355 0
-20 -106 -355 0
355 351 -192 0
-355 351 192 0
355 -351 192 0
-355 -351 -192 0
351 -356 0
355 -356 0
-351 -355 356 0
106 -357 0
20 -357 0
-106 -20 357 0
-356 342 0
-357 342 0
356 357 -342 0
344 -358 0
348 -358 0
352 -358 0
355 -358 0
-344 -348 -352 -355 358 0
357 -359 0
-357 359 0
341 -360 0
358 -360 0
-341 -358 360 0
-360 361 0
-342 361 0
360 342 -361 0
21 107 -364 0
-21 107 364 0
21 -107 364 0
-21 -107 -364 0
364 361 -193 0
-364 361 193 0
364 -361 193 0
-364 -361 -193 0
361 -365 0
364 -365 0
-361 -364 365 0
107 -366 0
21 -366 0
-107 -21 366 0
-365 363 0
-366 363 0
365 366 -363 0
22 108 -368 0
-22 108 368 0
22 -108 368 0
-22 -108 -368 0
368 363 -194 0
-368 363 194 0
368 -363 194 0
-368 -363 -194 0
363 -369 0
368 -369 0
-363 -368 369 0
108 -370 0
22 -370 0
-108 -22 370 0
-369 367 0
-370 367 0
369 370 -367 0
23 109 -372 0
-23 109 372 0
23 -109 372 0
-23 -109 -372 0
372 367 -195 0
-372 367 195 0
372 -367 195 0
-372 -367 -195 0
367 -373 0
372 -373 0
-367 -372 373 0
109 -374 0
23 -374 0
-109 -23 374 0
-373 371 0
-374 371 0
373 374 -371 0
24 110 -375 0
-24 110 375 0
24 -110 375 0
-24 -110 -375 0
375 371 -196 0
-375 371 196 0
375 -371 196 0
-375 -371 -196 0
371 -376 0
375 -376 0
-371 -375 376 0
110 -377 0
24 -377 0
-110 -24 377 0
-376 362 0
-377 362 0
376 377 -362 0
364 -378 0
368 -378 0
372 -378 0
375 -378 0
-364 -368 -372 -375 378 0
377 -379 0
-377 379 0
361 -380 0
378 -380 0
-361 -378 380 0
-380 381 0
-362 381 0
380 362 -381 0
25 111 -384 0
-25 111 384 0
25 -111 384 0
-25 -111 -384 0
384 381 -197 0
-384 381 197 0
384 -381 197 0
-384 -381 -197 0
381 -385 0
384 -385 0
-381 -384 385 0
111 -386 0
25 -386 0
-111 -25 386 0
-385 383 0
-386 383 0
385 386 -383 0
26 112 -388 0
-26 112 388 0
26 -112 388 0
-26 -112 -388 0
388 383 -198 0
-388 383 198 0
388 -383 198 0
-388 -383 -198 0
383 -389 0
388 -389 0
-383 -388 389 0
112 -390 0
26 -390 0
-112 -26 390 0
-389 387 0
-390 387 0
389 390 -387 0
27 113 -392 0
-27 113 392 0
27 -113 392 0
-27 -113 -392 0
392 387 -199 0
-392 387 199 0
392 -387 199 0
-392 -387 -199 0
387 -393 0
392 -393 0
-387 -392 393 0
113 -394 0
27 -394 0
-113 -27 394 0
-393 391 0
-394 391 0
393 394 -391 0
28 114 -395 0
-28 114 395 0
28 -114 395 0
-28 -114 -395 0
395 391 -200 0
-395 391 200 0
395 -391 200 0
-395 -391 -200 0
391 -396 0
395 -396 0
-391 -395 396 0
114 -397 0
28 -397 0
-114 -28 397 0
-396 382 0
-397 382 0
396 397 -382 0
384 -398 0
388 -398 0
392 -398 0
395 -398 0
-384 -388 -392 -395 398 0
397 -399 0
-397 399 0
381 -400 0
398 -400 0
-381 -398 400 0
-400 401 0
-382 401 0
400 382 -401 0
29 115 -404 0
-29 115 404 0
29 -115 404 0
-29 -115 -404 0
404 401 -201 0
-404 401 201 0
404 -401 201 0
-404 -401 -201 0
401 -405 0
404 -405 0
-401 -404 405 0
115 -406 0
29 -406 0
-115 -29 406 0
-405 403 0
-406 403 0
405 406 -403 0
30 116 -408 0
-30 116 408 0
30 -116 408 0
-30 -116 -408 0
408 403 -202 0
-408 403 202 0
408 -403 202 0
-408 -403 -202 0
403 -409 0
408 -409 0
-403 -408 409 0
116 -410 0
30 -410 0
-116 -30 410 0
-409 407 0
-410 407 0
409 410 -407 0
31 117 -412 0
-31 117 412 0
31 -117 412 0
-31 -117 -412 0
412 407 -203 0
-412 407 203 0
412 -407 203 0
-412 -407 -203 0
407 -413 0
412 -413 0
-407 -412 413 0
117 -414 0
31 -414 0
-117 -31 414 0
-413 411 0
-414 411 0
413 414 -411 0
32 118 -415 0
-32 118 415 0
32 -118 415 0
-32 -118 -415 0
415 411 -204 0
-415 411 204 0
415 -411 204 0
-415 -411 -204 0
411 -416 0
415 -416 0
-411 -415 416 0
118 -417 0
32 -417 0
-118 -32 417 0
-416 402 0
-417 402 0
416 417 -402 0
404 -418 0
408 -418 0
412 -418 0
415 -418 0
-404 -408 -412 -415 418 0
417 -419 0
-417 419 0
401 -420 0
418 -420 0
-401 -418 420 0
-420 421 0
-402 421 0
420 402 -421 0
33 119 -424 0
-33 119 424 0
33 -119 424 0
-33 -119 -424 0
424 421 -205 0
-424 421 205 0
424 -421 205 0
-424 -421 -205 0
421 -425 0
424 -425 0
-421 -424 425 0
119 -426 0
33 -426 0
-119 -33 426 0
-425 423 0
-426 423 0
425 426 -423 0
34 120 -428 0
-34 120 428 0
34 -120 428 0
-34 -120 -428 0
428 423 -206 0
-428 423 206 0
428 -423 206 0
-428 -423 -206 0
423 -429 0
428 -429 0
-423 -428 429 0
120 -430 0
34 -430 0
-120 -34 430 0
-429 427 0
-430 427 0
429 430 -427 0
35 121 -432 0
-35 121 432 0
35 -121 432 0
-35 -121 -432 0
432 427 -207 0
-432 427 207 0
432 -427 207 0
-432 -427 -207 0
427 -433 0
432 -433 0
-427 -432 433 0
121 -434 0
35 -434 0
-121 -35 434 0
-433 431 0
-434 431 0
433 434 -431 0
36 122 -435 0
-36 122 435 0
36 -122 435 0
-36 -122 -435 0
435 431 -208 0
-435 431 208 0
435 -431 208 0
-435 -431 -208 0
431 -436 0
435 -436 0
-431 -435 436 0
122 -437 0
36 -437 0
-122 -36 437 0
-436 422 0
-437 422 0
436 437 -422 0
424 -438 0
428 -438 0
432 -438 0
435 -438 0
-424 -428 -432 -435 438 0
437 -439 0
-437 439 0
421 -440 0
438 -440 0
-421 -438 440 0
-440 441 0
-422 441 0
440 422 -441 0
37 123 -444 0
-37 123 444 0
37 -123 444 0
-37 -123 -444 0
444 441 -209 0
-444 441 209 0
444 -441 209 0
-444 -441 -209 0
441 -445 0
444 -445 0
-441 -444 445 0
123 -446 0
37 -446 0
-123 -37 446 0
-445 443 0
-446 443 0
445 446 -443 0
38 124 -448 0
-38 124 448 0
38 -124 448 0
-38 -124 -448 0
448 443 -210 0
-448 443 210 0
448 -443 210 0
-448 -443 -210 0
443 -449 0
448 -449 0
-443 -448 449 0
124 -450 0
38 -450 0
-124 -38 450 0
-449 447 0
-450 447 0
449 450 -447 0
39 125 -452 0
-39 125 452 0
39 -125 452 0
-39 -125 -452 0
452 447 -211 0
-452 447 211 0
452 -447 211 0
-452 -447 -211 0
447 -453 0
452 -453 0
-447 -452 453 0
125 -454 0
39 -454 0
-125 -39 454 0
-453 451 0
-454 451 0
453 454 -451 0
40 126 -455 0
-40 126 455 0
40 -126 455 0
-40 -126 -455 0
455 451 -212 0
-455 451 212 0
455 -451 212 0
-455 -451 -212 0
451 -456 0
455 -456 0
-451 -455 456 0
126 -457 0
40 -457 0
-126 -40 457 0
-456 442 0
-457 442 0
456 457 -442 0
444 -458 0
448 -458 0
452 -458 0
455 -458 0
-444 -448 -452 -455 458 0
457 -459 0
-457 459 0
441 -460 0
458 -460 0
-441 -458 460 0
-460 461 0
-442 461 0
460 442 -461 0
41 127 -464 0
-41 127 464 0
41 -127 464 0
-41 -127 -464 0
464 461 -213 0
-464 461 213 0
464 -461 213 0
-464 -461 -213 0
461 -465 0
464 -465 0
-461 -464 465 0
127 -466 0
41 -466 0
-127 -41 466 0
-465 463 0
-466 463 0
465 466 -463 0
42 128 -468 0
-42 128 468 0
42 -128 468 0
-42 -128 -468 0
468 463 -214 0
-468 463 214 0
468 -463 214 0
-468 -463 -214 0
463 -469 0
468 -469 0
-463 -468 469 0
128 -470 0
42 -470 0
-128 -42 470 0
-469 467 0
-470 467 0
469 470 -467 0
43 129 -472 0
-43 129 472 0
43 -129 472 0
-43 -129 -472 0
472 467 -215 0
-472 467 215 0
472 -467 215 0
-472 -467 -215 0
467 -473 0
472 -473 0
-467 -472 473 0
129 -474 0
43 -474 0
-129 -43 474 0
-473 471 0
-474 471 0
473 474 -471 0
44 130 -475 0
-44 130 475 0
44 -130 475 0
-44 -130 -475 0
475 471 -216 0
-475 471 216 0
475 -471 216 0
-475 -471 -216 0
471 -476 0
475 -476 0
-471 -475 476 0
130 -477 0
44 -477 0
-130 -44 477 0
-476 462 0
-477 462 0
476 477 -462 0
464 -478 0
468 -478 0
472 -478 0
475 -478 0
-464 -468 -472 -475 478 0
477 -479 0
-477 479 0
461 -480 0
478 -480 0
-461 -478 480 0
-480 481 0
-462 481 0
480 462 -481 0
45 131 -484 0
-45 131 484 0
45 -131 484 0
-45 -131 -484 0
484 481 -217 0
-484 481 217 0
484 -481 217 0
-484 -481 -217 0
481 -485 0
484 -485 0
-481 -484 485 0
131 -486 0
45 -486 0
-131 -45 486 0
-485 483 0
-486 483 0
485 486 -483 0
46 132 -488 0
-46 132 488 0
46 -132 488 0
-46 -132 -488 0
488 483 -218 0
-488 483 218 0
488 -483 218 0
-488 -483 -218 0
483 -489 0
488 -489 0
-483 -488 489 0
132 -490 0
46 -490 0
-132 -46 490 0
-489 487 0
-490 487 0
489 490 -487 0
47 133 -492 0
-47 133 492 0
47 -133 492 0
-47 -133 -492 0
492 487 -219 0
-492 487 219 0
492 -487 219 0
-492 -487 -219 0
487 -493 0
492 -493 0
-487 -492 493 0
133 -494 0
47 -494 0
-133 -47 494 0
-493 491 0
-494 491 0
493 494 -491 0
48 134 -495 0
-48 134 495 0
48 -134 495 0
-48 -134 -495 0
495 491 -220 0
-495 491 220 0
495 -491 220 0
-495 -491 -220 0
491 -496 0
495 -496 0
-491 -495 496 0
134 -497 0
48 -497 0
-134 -48 497 0
-496 482 0
-497 482 0
496 497 -482 0
484 -498 0
488 -498 0
492 -498 0
495 -498 0
-484 -488 -492 -495 498 0
497 -499 0
-497 499 0
481 -500 0
498 -500 0
-481 -498 500 0
-500 501 0
-482 501 0
500 482 -501 0
49 135 -504 0
-49 135 504 0
49 -135 504 0
-49 -135 -504 0
504 501 -221 0
-504 501 221 0
504 -501 221 0
-504 -501 -221 0
501 -505 0
504 -505 0
-501 -504 505 0
135 -506 0
49 -506 0
-135 -49 506 0
-505 503 0
-506 503 0
505 506 -503 0
50 136 -508 0
-50 136 508 0
50 -136 508 0
-50 -136 -508 0
508 503 -222 0
-508 503 222 0
508 -503 222 0
-508 -503 -222 0
503 -509 0
508 -509 0
-503 -508 509 0
136 -510 0
50 -510 0
-136 -50 510 0
-509 507 0
-510 507 0
509 510 -507 0
51 137 -512 0
-51 137 512 0
51 -137 512 0
-51 -137 -512 0
512 507 -223 0
-512 507 223 0
512 -507 223 0
-512 -507 -223 0
507 -513 0
512 -513 0
-507 -512 513 0
137 -514 0
51 -514 0
-137 -51 514 0
-513 511 0
-514 511 0
513 514 -511 0
52 138 -515 0
-52 138 515 0
52 -138 515 0
-52 -138 -515 0
515 511 -224 0
-515 511 224 0
515 -511 224 0
-515 -511 -224 0
511 -516 0
515 -516 0
-511 -515 516 0
138 -517 0
52 -517 0
-138 -52 517 0
-516 502 0
-517 502 0
516 517 -502 0
504 -518 0
508 -518 0
512 -518 0
515 -518 0
-504 -508 -512 -515 518 0
517 -519 0
-517 519 0
501 -520 0
518 -520 0
-501 -518 520 0
-520 521 0
-502 521 0
520 502 -521 0
53 139 -524 0
-53 139 524 0
53 -139 524 0
-53 -139 -524 0
524 521 -225 0
-524 521 225 0
524 -521 225 0
-524 -521 -225 0
521 -525 0
524 -525 0
-521 -524 525 0
139 -526 0
53 -526 0
-139 -53 526 0
-525 523 0
-526 523 0
525 526 -523 0
54 140 -528 0
-54 140 528 0
54 -140 528 0
-54 -140 -528 0
528 523 -226 0
-528 523 226 0
528 -523 226 0
-528 -523 -226 0
523 -529 0
528 -529 0
-523 -528 529 0
140 -530 0
54 -530 0
-140 -54 530 0
-529 527 0
-530 527 0
529 530 -527 0
55 141 -532 0
-55 141 532 0
55 -141 532 0
-55 -141 -532 0
532 527 -227 0
-532 527 227 0
532 -527 227 0
-532 -527 -227 0
527 -533 0
532 -533 0
-527 -532 533 0
141 -534 0
55 -534 0
-141 -55 534 0
-533 531 0
-534 531 0
533 534 -531 0
56 142 -535 0
-56 142 535 0
56 -142 535 0
-56 -142 -535 0
535 531 -228 0
-535 531 228 0
535 -531 228 0
-535 -531 -228 0
531 -536 0
535 -536 0
-531 -535 536 0
142 -537 0
56 -537 0
-142 -56 537 0
-536 522 0
-537 522 0
536 537 -522 0
524 -538 0
528 -538 0
532 -538 0
535 -538 0
-524 -528 -532 -535 538 0
537 -539 0
-537 539 0
521 -540 0
538 -540 0
-521 -538 540 0
-540 541 0
-522 541 0
540 522 -541 0
57 143 -544 0
-57 143 544 0
57 -143 544 0
-57 -143 -544 0
544 541 -229 0
-544 541 229 0
544 -541 229 0
-544 -541 -229 0
541 -545 0
544 -545 0
-541 -544 545 0
143 -546 0
57 -546 0
-143 -57 546 0
-545 543 0
-546 543 0
545 546 -543 0
58 144 -548 0
-58 144 548 0
58 -144 548 0
-58 -144 -548 0
548 543 -230 0
-548 543 230 0
548 -543 230 0
-548 -543 -230 0
543 -549 0
548 -549 0
-543 -548 549 0
144 -550 0
58 -550 0
-144 -58 550 0
-549 547 0
-550 547 0
549 550 -547 0
59 145 -552 0
-59 145 552 0
59 -145 552 0
-59 -145 -552 0
552 547 -231 0
-552 547 231 0
552 -547 231 0
-552 -547 -231 0
547 -553 0
552 -553 0
-547 -552 553 0
145 -554 0
59 -554 0
-145 -59 554 0
-553 551 0
-554 551 0
553 554 -551 0
60 146 -555 0
-60 146 555 0
60 -146 555 0
-60 -146 -555 0
555 551 -232 0
-555 551 232 0
555 -551 232 0
-555 -551 -232 0
551 -556 0
555 -556 0
-551 -555 556 0
146 -557 0
60 -557 0
-146 -60 557 0
-556 542 0
-557 542 0
556 557 -542 0
544 -558 0
548 -558 0
552 -558 0
555 -558 0
-544 -548 -552 -555 558 0
557 -559 0
-557 559 0
541 -560 0
558 -560 0
-541 -558 560 0
-560 561 0
-542 561 0
560 542 -561 0
61 147 -564 0
-61 147 564 0
61 -147 564 0
-61 -147 -564 0
564 561 -233 0
-564 561 233 0
564 -561 233 0
-564 -561 -233 0
561 -565 0
564 -565 0
-561 -564 565 0
147 -566 0
61 -566 0
-147 -61 566 0
-565 563 0
-566 563 0
565 566 -563 0
62 148 -568 0
-62 148 568 0
62 -148 568 0
-62 -148 -568 0
568 563 -234 0
-568 563 234 0
568 -563 234 0
-568 -563 -234 0
563 -569 0
568 -569 0
-563 -568 569 0
148 -570 0
62 -570 0
-148 -62 570 0
-569 567 0
-570 567 0
569 570 -567 0
63 149 -572 0
-63 149 572 0
63 -149 572 0
-63 -149 -572 0
572 567 -235 0
-572 567 235 0
572 -567 235 0
-572 -567 -235 0
567 -573 0
572 -573 0
-567 -572 573 0
149 -574 0
63 -574 0
-149 -63 574 0
-573 571 0
-574 571 0
573 574 -571 0
64 150 -575 0
-64 150 575 0
64 -150 575 0
-64 -150 -575 0
575 571 -236 0
-575 571 236 0
575 -571 236 0
-575 -571 -236 0
571 -576 0
575 -576 0
-571 -575 576 0
150 -577 0
64 -577 0
-150 -64 577 0
-576 562 0
-577 562 0
576 577 -562 0
564 -578 0
568 -578 0
572 -578 0
575 -578 0
-564 -568 -572 -575 578 0
577 -579 0
-577 579 0
561 -580 0
578 -580 0
-561 -578 580 0
-580 581 0
-562 581 0
580 562 -581 0
65 151 -584 0
-65 151 584 0
65 -151 584 0
-65 -151 -584 0
584 581 -237 0
-584 581 237 0
584 -581 237 0
-584 -581 -237 0
581 -585 0
584 -585 0
-581 -584 585 0
151 -586 0
65 -586 0
-151 -65 586 0
-585 583 0
-586 583 0
585 586 -583 0
66 152 -588 0
-66 152 588 0
66 -152 588 0
-66 -152 -588 0
588 583 -238 0
-588 583 238 0
588 -583 238 0
-588 -583 -238 0
583 -589 0
588 -589 0
-583 -588 589 0
152 -590 0
66 -590 0
-152 -66 590 0
-589 587 0
-590 587 0
589 590 -587 0
67 153 -592 0
-67 153 592 0
67 -153 592 0
-67 -153 -592 0
592 587 -239 0
-592 587 239 0
592 -587 239 0
-592 -587 -239 0
587 -593 0
592 -593 0
-587 -592 593 0
153 -594 0
67 -594 0
-153 -67 594 0
-593 591 0
-594 591 0
593 594 -591 0
68 154 -595 0
-68 154 595 0
68 -154 595 0
-68 -154 -595 0
595 591 -240 0
-595 591 240 0
595 -591 240 0
-595 -591 -240 0
591 -596 0
595 -596 0
-591 -595 596 0
154 -597 0
68 -597 0
-154 -68 597 0
-596 582 0
-597 582 0
596 597 -582 0
584 -598 0
588 -598 0
592 -598 0
595 -598 0
-584 -588 -592 -595 598 0
597 -599 0
-597 599 0
581 -600 0
598 -600 0
-581 -598 600 0
-600 601 0
-582 601 0
600 582 -601 0
69 155 -604 0
-69 155 604 0
69 -155 604 0
-69 -155 -604 0
604 601 -241 0
-604 601 241 0
604 -601 241 0
-604 -601 -241 0
601 -605 0
604 -605 0
-601 -604 605 0
155 -606 0
69 -606 0
-155 -69 606 0
-605 603 0
-606 603 0
605 606 -603 0
70 156 -608 0
-70 156 608 0
70 -156 608 0
-70 -156 -608 0
608 603 -242 0
-608 603 242 0
608 -603 242 0
-608 -603 -242 0
603 -609 0
608 -609 0
-603 -608 609 0
156 -610 0
70 -610 0
-156 -70 610 0
-609 607 0
-610 607 0
609 610 -607 0
71 157 -612 0
-71 157 612 0
71 -157 612 0
-71 -157 -612 0
612 607 -243 0
-612 607 243 0
612 -607 243 0
-612 -607 -243 0
607 -613 0
612 -613 0
-607 -612 613 0
157 -614 0
71 -614 0
-157 -71 614 0
-613 611 0
-614 611 0
613 614 -611 0
72 158 -615 0
-72 158 615 0
72 -158 615 0
-72 -158 -615 0
615 611 -244 0
-615 611 244 0
615 -611 244 0
-615 -611 -244 0
611 -616 0
615 -616 0
-611 -615 616 0
158 -617 0
72 -617 0
-158 -72 617 0
-616 602 0
-617 602 0
616 617 -602 0
604 -618 0
608 -618 0
612 -618 0
615 -618 0
-604 -608 -612 -615 618 0
617 -619 0
-617 619 0
601 -620 0
618 -620 0
-601 -618 620 0
-620 621 0
-602 621 0
620 602 -621 0
73 159 -624 0
-73 159 624 0
73 -159 624 0
-73 -159 -624 0
624 621 -245 0
-624 621 245 0
624 -621 245 0
-624 -621 -245 0
621 -625 0
624 -625 0
-621 -624 625 0
159 -626 0
73 -626 0
-159 -73 626 0
-625 623 0
-626 623 0
625 626 -623 0
74 160 -628 0
-74 160 628 0
74 -160 628 0
-74 -160 -628 0
628 623 -246 0
-628 623 246 0
628 -623 246 0
-628 -623 -246 0
623 -629 0
628 -629 0
-623 -628 629 0
160 -630 0
74 -630 0
-160 -74 630 0
-629 627 0
-630 627 0
629 630 -627 0
75 161 -632 0
-75 161 632 0
75 -161 632 0
-75 -161 -632 0
632 627 -247 0
-632 627 247 0
632 -627 247 0
-632 -627 -247 0
627 -633 0
632 -633 0
-627 -632 633 0
161 -634 0
75 -634 0
-161 -75 634 0
-633 631 0
-634 631 0
633 634 -631 0
76 162 -635 0
-76 162 635 0
76 -162 635 0
-76 -162 -635 0
635 631 -248 0
-635 631 248 0
635 -631 248 0
-635 -631 -248 0
631 -636 0
635 -636 0
-631 -635 636 0
162 -637 0
76 -637 0
-162 -76 637 0
-636 622 0
-637 622 0
636 637 -622 0
624 -638 0
628 -638 0
632 -638 0
635 -638 0
-624 -628 -632 -635 638 0
637 -639 0
-637 639 0
621 -640 0
638 -640 0
-621 -638 640 0
-640 641 0
-622 641 0
640 622 -641 0
77 163 -644 0
-77 163 644 0
77 -163 644 0
-77 -163 -644 0
644 641 -249 0
-644 641 249 0
644 -641 249 0
-644 -641 -249 0
641 -645 0
644 -645 0
-641 -644 645 0
163 -646 0
77 -646 0
-163 -77 646 0
-645 643 0
-646 643 0
645 646 -643 0
78 164 -648 0
-78 164 648 0
78 -164 648 0
-78 -164 -648 0
648 643 -250 0
-648 643 250 0
648 -643 250 0
-648 -643 -250 0
643 -649 0
648 -649 0
-643 -648 649 0
164 -650 0
78 -650 0
-164 -78 650 0
-649 647 0
-650 647 0
649 650 -647 0
79 165 -652 0
-79 165 652 0
79 -165 652 0
-79 -165 -652 0
652 647 -251 0
-652 647 251 0
652 -647 251 0
-652 -647 -251 0
647 -653 0
652 -653 0
-647 -652 653 0
165 -654 0
79 -654 0
-165 -79 654 0
-653 651 0
-654 651 0
653 654 -651 0
80 166 -655 0
-80 166 655 0
80 -166 655 0
-80 -166 -655 0
655 651 -252 0
-655 651 252 0
655 -651 252 0
-655 -651 -252 0
651 -656 0
655 -656 0
-651 -655 656 0
166 -657 0
80 -657 0
-166 -80 657 0
-656 642 0
-657 642 0
656 657 -642 0
644 -658 0
648 -658 0
652 -658 0
655 -658 0
-644 -648 -652 -655 658 0
657 -659 0
-657 659 0
641 -660 0
658 -660 0
-641 -658 660 0
-660 661 0
-642 661 0
660 642 -661 0
81 167 -664 0
-81 167 664 0
81 -167 664 0
-81 -167 -664 0
664 661 -253 0
-664 661 253 0
664 -661 253 0
-664 -661 -253 0
661 -665 0
664 -665 0
-661 -664 665 0
167 -666 0
81 -666 0
-167 -81 666 0
-665 663 0
-666 663 0
665 666 -663 0
82 168 -668 0
-82 168 668 0
82 -168 668 0
-82 -168 -668 0
668 663 -254 0
-668 663 254 0
668 -663 254 0
-668 -663 -254 0
663 -669 0
668 -669 0
-663 -668 669 0
168 -670 0
82 -670 0
-168 -82 670 0
-669 667 0
-670 667 0
669 670 -667 0
83 169 -672 0
-83 169 672 0
83 -169 672 0
-83 -169 -672 0
672 667 -255 0
-672 667 255 0
672 -667 255 0
-672 -667 -255 0
667 -673 0
672 -673 0
-667 -672 673 0
169 -674 0
83 -674 0
-169 -83 674 0
-673 671 0
-674 671 0
673 674 -671 0
84 170 -675 0
-84 170 675 0
84 -170 675 0
-84 -170 -675 0
675 671 -256 0
-675 671 256 0
675 -671 256 0
-675 -671 -256 0
671 -676 0
675 -676 0
-671 -675 676 0
170 -677 0
84 -677 0
-170 -84 677 0
-676 662 0
-677 662 0
676 677 -662 0
664 -678 0
668 -678 0
672 -678 0
675 -678 0
-664 -668 -672 -675 678 0
677 -679 0
-677 679 0
661 -680 0
678 -680 0
-661 -678 680 0
-680 681 0
-662 681 0
680 662 -681 0
85 171 -684 0
-85 171 684 0
85 -171 684 0
-85 -171 -684 0
684 681 -257 0
-684 681 257 0
684 -681 257 0
-684 -681 -257 0
681 -685 0
684 -685 0
-681 -684 685 0
171 -686 0
85 -686 0
-171 -85 686 0
-685 683 0
-686 683 0
685 686 -683 0
86 172 -687 0
-86 172 687 0
86 -172 687 0
-86 -172 -687 0
687 683 -258 0
-687 683 258 0
687 -683 258 0
-687 -683 -258 0
683 -688 0
687 -688 0
-683 -687 688 0
172 -689 0
86 -689 0
-172 -86 689 0
-688 682 0
-689 682 0
688 689 -682 0
684 -690 0
687 -690 0
-684 -687 690 0
689 -691 0
-689 691 0
681 -692 0
690 -692 0
-681 -690 692 0
-692 693 0
-682 693 0
692 682 -693 0
693 -259 0
-693 259 0
